tsp.mps
NAME          tsp
ROWS
 E  R0001
 E  R0002
 E  R0003
 E  R0004
 E  R0005
 E  R0006
 E  R0007
 E  R0008
 E  R0009
 E  R0010
 E  R0011
 E  R0012
 L  R0013
 L  R0014
 N  R0015
COLUMNS
    C0001     R0001     1
    C0001     R0002     1
    C0001     R0015     0.723
    C0002     R0001     1
    C0002     R0003     1
    C0002     R0015     1.046
    C0003     R0001     1
    C0003     R0004     1
    C0003     R0015     0.811
    C0004     R0001     1
    C0004     R0005     1
    C0004     R0015     0.588
    C0005     R0001     1
    C0005     R0006     1
    C0005     R0015     0.547
    C0006     R0001     1
    C0006     R0007     1
    C0006     R0015     0.97
    C0007     R0001     1
    C0007     R0008     1
    C0007     R0015     0.452
    C0008     R0001     1
    C0008     R0009     1
    C0008     R0015     0.361
    C0009     R0001     1
    C0009     R0010     1
    C0009     R0015     0.444
    C0010     R0001     1
    C0010     R0011     1
    C0010     R0015     0.605
    C0011     R0001     1
    C0011     R0012     1
    C0011     R0015     0.359
    C0012     R0015     0.723
    C0013     R0002     1
    C0013     R0003     1
    C0013     R0015     0.844
    C0014     R0002     1
    C0014     R0004     1
    C0014     R0015     0.618
    C0015     R0002     1
    C0015     R0005     1
    C0015     R0015     0.455
    C0016     R0002     1
    C0016     R0006     1
    C0016     R0014     1
    C0016     R0015     0.186
    C0017     R0002     1
    C0017     R0007     1
    C0017     R0014     1
    C0017     R0015     0.276
    C0018     R0002     1
    C0018     R0008     1
    C0018     R0015     0.534
    C0019     R0002     1
    C0019     R0009     1
    C0019     R0015     0.467
    C0020     R0002     1
    C0020     R0010     1
    C0020     R0014     1
    C0020     R0015     0.306
    C0021     R0002     1
    C0021     R0011     1
    C0021     R0015     0.707
    C0022     R0002     1
    C0022     R0012     1
    C0022     R0015     0.39
    C0023     R0015     1.046
    C0024     R0015     0.844
    C0025     R0003     1
    C0025     R0004     1
    C0025     R0013     1
    C0025     R0015     0.255
    C0026     R0003     1
    C0026     R0005     1
    C0026     R0015     0.498
    C0027     R0003     1
    C0027     R0006     1
    C0027     R0015     0.791
    C0028     R0003     1
    C0028     R0007     1
    C0028     R0015     0.773
    C0029     R0003     1
    C0029     R0008     1
    C0029     R0015     0.597
    C0030     R0003     1
    C0030     R0009     1
    C0030     R0015     0.716
    C0031     R0003     1
    C0031     R0010     1
    C0031     R0015     0.954
    C0032     R0003     1
    C0032     R0011     1
    C0032     R0013     1
    C0032     R0015     0.463
    C0033     R0003     1
    C0033     R0012     1
    C0033     R0015     0.975
    C0034     R0015     0.811
    C0035     R0015     0.618
    C0036     R0015     0.255
    C0037     R0004     1
    C0037     R0005     1
    C0037     R0015     0.244
    C0038     R0004     1
    C0038     R0006     1
    C0038     R0015     0.543
    C0039     R0004     1
    C0039     R0007     1
    C0039     R0015     0.609
    C0040     R0004     1
    C0040     R0008     1
    C0040     R0015     0.359
    C0041     R0004     1
    C0041     R0009     1
    C0041     R0015     0.468
    C0042     R0004     1
    C0042     R0010     1
    C0042     R0015     0.701
    C0043     R0004     1
    C0043     R0011     1
    C0043     R0013     1
    C0043     R0015     0.288
    C0044     R0004     1
    C0044     R0012     1
    C0044     R0015     0.72
    C0045     R0015     0.588
    C0046     R0015     0.455
    C0047     R0015     0.498
    C0048     R0015     0.244
    C0049     R0005     1
    C0049     R0006     1
    C0049     R0015     0.33
    C0050     R0005     1
    C0050     R0007     1
    C0050     R0015     0.551
    C0051     R0005     1
    C0051     R0008     1
    C0051     R0015     0.156
    C0052     R0005     1
    C0052     R0009     1
    C0052     R0015     0.231
    C0053     R0005     1
    C0053     R0010     1
    C0053     R0015     0.467
    C0054     R0005     1
    C0054     R0011     1
    C0054     R0015     0.255
    C0055     R0005     1
    C0055     R0012     1
    C0055     R0015     0.479
    C0056     R0015     0.547
    C0057     R0015     0.186
    C0058     R0015     0.791
    C0059     R0015     0.543
    C0060     R0015     0.33
    C0061     R0006     1
    C0061     R0007     1
    C0061     R0014     1
    C0061     R0015     0.425
    C0062     R0006     1
    C0062     R0008     1
    C0062     R0015     0.369
    C0063     R0006     1
    C0063     R0009     1
    C0063     R0015     0.285
    C0064     R0006     1
    C0064     R0010     1
    C0064     R0014     1
    C0064     R0015     0.185
    C0065     R0006     1
    C0065     R0011     1
    C0065     R0015     0.562
    C0066     R0006     1
    C0066     R0012     1
    C0066     R0015     0.248
    C0067     R0015     0.97
    C0068     R0015     0.276
    C0069     R0015     0.773
    C0070     R0015     0.609
    C0071     R0015     0.551
    C0072     R0015     0.425
    C0073     R0007     1
    C0073     R0008     1
    C0073     R0015     0.681
    C0074     R0007     1
    C0074     R0009     1
    C0074     R0015     0.661
    C0075     R0007     1
    C0075     R0010     1
    C0075     R0015     0.578
    C0076     R0007     1
    C0076     R0011     1
    C0076     R0015     0.798
    C0077     R0007     1
    C0077     R0012     1
    C0077     R0015     0.658
    C0078     R0015     0.452
    C0079     R0015     0.534
    C0080     R0015     0.597
    C0081     R0015     0.359
    C0082     R0015     0.156
    C0083     R0015     0.369
    C0084     R0015     0.681
    C0085     R0008     1
    C0085     R0009     1
    C0085     R0015     0.134
    C0086     R0008     1
    C0086     R0010     1
    C0086     R0015     0.448
    C0087     R0008     1
    C0087     R0011     1
    C0087     R0015     0.212
    C0088     R0008     1
    C0088     R0012     1
    C0088     R0015     0.431
    C0089     R0015     0.361
    C0090     R0015     0.467
    C0091     R0015     0.716
    C0092     R0015     0.468
    C0093     R0015     0.231
    C0094     R0015     0.285
    C0095     R0015     0.661
    C0096     R0015     0.134
    C0097     R0009     1
    C0097     R0010     1
    C0097     R0015     0.324
    C0098     R0009     1
    C0098     R0011     1
    C0098     R0015     0.344
    C0099     R0009     1
    C0099     R0012     1
    C0099     R0015     0.299
    C0100     R0015     0.444
    C0101     R0015     0.306
    C0102     R0015     0.954
    C0103     R0015     0.701
    C0104     R0015     0.467
    C0105     R0015     0.185
    C0106     R0015     0.578
    C0107     R0015     0.448
    C0108     R0015     0.324
    C0109     R0010     1
    C0109     R0011     1
    C0109     R0015     0.659
    C0110     R0010     1
    C0110     R0012     1
    C0110     R0014     1
    C0110     R0015     0.088
    C0111     R0015     0.605
    C0112     R0015     0.707
    C0113     R0015     0.463
    C0114     R0015     0.288
    C0115     R0015     0.255
    C0116     R0015     0.562
    C0117     R0015     0.798
    C0118     R0015     0.212
    C0119     R0015     0.344
    C0120     R0015     0.659
    C0121     R0011     1
    C0121     R0012     1
    C0121     R0015     0.642
    C0122     R0015     0.359
    C0123     R0015     0.39
    C0124     R0015     0.975
    C0125     R0015     0.72
    C0126     R0015     0.479
    C0127     R0015     0.248
    C0128     R0015     0.658
    C0129     R0015     0.431
    C0130     R0015     0.299
    C0131     R0015     0.088
    C0132     R0015     0.642
RHS
    B         R0001     2
    B         R0002     2
    B         R0003     2
    B         R0004     2
    B         R0005     2
    B         R0006     2
    B         R0007     2
    B         R0008     2
    B         R0009     2
    B         R0010     2
    B         R0011     2
    B         R0012     2
    B         R0013     2
    B         R0014     4
BOUNDS
 UP BOUND     C0001     1
 UP BOUND     C0002     1
 UP BOUND     C0003     1
 UP BOUND     C0004     1
 UP BOUND     C0005     1
 UP BOUND     C0006     1
 UP BOUND     C0007     1
 UP BOUND     C0008     1
 UP BOUND     C0009     1
 UP BOUND     C0010     1
 UP BOUND     C0011     1
 UP BOUND     C0012     1
 UP BOUND     C0013     1
 UP BOUND     C0014     1
 UP BOUND     C0015     1
 UP BOUND     C0016     1
 UP BOUND     C0017     1
 UP BOUND     C0018     1
 UP BOUND     C0019     1
 UP BOUND     C0020     1
 UP BOUND     C0021     1
 UP BOUND     C0022     1
 UP BOUND     C0023     1
 UP BOUND     C0024     1
 UP BOUND     C0025     1
 UP BOUND     C0026     1
 UP BOUND     C0027     1
 UP BOUND     C0028     1
 UP BOUND     C0029     1
 UP BOUND     C0030     1
 UP BOUND     C0031     1
 UP BOUND     C0032     1
 UP BOUND     C0033     1
 UP BOUND     C0034     1
 UP BOUND     C0035     1
 UP BOUND     C0036     1
 UP BOUND     C0037     1
 UP BOUND     C0038     1
 UP BOUND     C0039     1
 UP BOUND     C0040     1
 UP BOUND     C0041     1
 UP BOUND     C0042     1
 UP BOUND     C0043     1
 UP BOUND     C0044     1
 UP BOUND     C0045     1
 UP BOUND     C0046     1
 UP BOUND     C0047     1
 UP BOUND     C0048     1
 UP BOUND     C0049     1
 UP BOUND     C0050     1
 UP BOUND     C0051     1
 UP BOUND     C0052     1
 UP BOUND     C0053     1
 UP BOUND     C0054     1
 UP BOUND     C0055     1
 UP BOUND     C0056     1
 UP BOUND     C0057     1
 UP BOUND     C0058     1
 UP BOUND     C0059     1
 UP BOUND     C0060     1
 UP BOUND     C0061     1
 UP BOUND     C0062     1
 UP BOUND     C0063     1
 UP BOUND     C0064     1
 UP BOUND     C0065     1
 UP BOUND     C0066     1
 UP BOUND     C0067     1
 UP BOUND     C0068     1
 UP BOUND     C0069     1
 UP BOUND     C0070     1
 UP BOUND     C0071     1
 UP BOUND     C0072     1
 UP BOUND     C0073     1
 UP BOUND     C0074     1
 UP BOUND     C0075     1
 UP BOUND     C0076     1
 UP BOUND     C0077     1
 UP BOUND     C0078     1
 UP BOUND     C0079     1
 UP BOUND     C0080     1
 UP BOUND     C0081     1
 UP BOUND     C0082     1
 UP BOUND     C0083     1
 UP BOUND     C0084     1
 UP BOUND     C0085     1
 UP BOUND     C0086     1
 UP BOUND     C0087     1
 UP BOUND     C0088     1
 UP BOUND     C0089     1
 UP BOUND     C0090     1
 UP BOUND     C0091     1
 UP BOUND     C0092     1
 UP BOUND     C0093     1
 UP BOUND     C0094     1
 UP BOUND     C0095     1
 UP BOUND     C0096     1
 UP BOUND     C0097     1
 UP BOUND     C0098     1
 UP BOUND     C0099     1
 UP BOUND     C0100     1
 UP BOUND     C0101     1
 UP BOUND     C0102     1
 UP BOUND     C0103     1
 UP BOUND     C0104     1
 UP BOUND     C0105     1
 UP BOUND     C0106     1
 UP BOUND     C0107     1
 UP BOUND     C0108     1
 UP BOUND     C0109     1
 UP BOUND     C0110     1
 UP BOUND     C0111     1
 UP BOUND     C0112     1
 UP BOUND     C0113     1
 UP BOUND     C0114     1
 UP BOUND     C0115     1
 UP BOUND     C0116     1
 UP BOUND     C0117     1
 UP BOUND     C0118     1
 UP BOUND     C0119     1
 UP BOUND     C0120     1
 UP BOUND     C0121     1
 UP BOUND     C0122     1
 UP BOUND     C0123     1
 UP BOUND     C0124     1
 UP BOUND     C0125     1
 UP BOUND     C0126     1
 UP BOUND     C0127     1
 UP BOUND     C0128     1
 UP BOUND     C0129     1
 UP BOUND     C0130     1
 UP BOUND     C0131     1
 UP BOUND     C0132     1
ENDATA
