tsp.sol
<?xml version = "1.0" encoding="UTF-8" standalone="yes"?>
<CPLEXSolution version="1.2">
 <header
   problemName="tsp.mps"
   objectiveValue="3.2714999999999996"
   solutionTypeValue="1"
   solutionTypeString="basic"
   solutionStatusValue="1"
   solutionStatusString="optimal"
   solutionMethodString="dual"
   primalFeasible="1"
   dualFeasible="1"
   simplexIterations="26"
   writeLevel="1"/>
 <quality
   epRHS="9.9999999999999995e-07"
   epOpt="9.9999999999999995e-07"
   maxPrimalInfeas="0"
   maxDualInfeas="0"
   maxPrimalResidual="0"
   maxDualResidual="2.7755575615628914e-17"
   maxX="1"
   maxPi="0.40899999999999997"
   maxSlack="0"
   maxRedCost="1.046"
   kappa="10.5"/>
 <linearConstraints>
  <constraint name="R0001" index="0" status="LL" slack="0" dual="0.27500000000000002"/>
  <constraint name="R0002" index="1" status="LL" slack="0" dual="0.16999999999999998"/>
  <constraint name="R0003" index="2" status="LL" slack="0" dual="0.31950000000000001"/>
  <constraint name="R0004" index="3" status="LL" slack="0" dual="0.14449999999999999"/>
  <constraint name="R0005" index="4" status="LL" slack="0" dual="0.099500000000000005"/>
  <constraint name="R0006" index="5" status="LL" slack="0" dual="0.048999999999999988"/>
  <constraint name="R0007" index="6" status="LL" slack="0" dual="0.40899999999999997"/>
  <constraint name="R0008" index="7" status="LL" slack="0" dual="0.056499999999999995"/>
  <constraint name="R0009" index="8" status="LL" slack="0" dual="0.085999999999999965"/>
  <constraint name="R0010" index="9" status="LL" slack="0" dual="0.16899999999999998"/>
  <constraint name="R0011" index="10" status="LL" slack="0" dual="0.1555"/>
  <constraint name="R0012" index="11" status="LL" slack="0" dual="0.19900000000000001"/>
  <constraint name="R0013" index="12" status="LL" slack="0" dual="-0.012000000000000011"/>
  <constraint name="R0014" index="13" status="LL" slack="0" dual="-0.032999999999999974"/>
 </linearConstraints>
 <variables>
  <variable name="C0001" index="0" status="LL" value="0" reducedCost="0.27799999999999997"/>
  <variable name="C0002" index="1" status="LL" value="0" reducedCost="0.45150000000000001"/>
  <variable name="C0003" index="2" status="LL" value="0" reducedCost="0.39150000000000007"/>
  <variable name="C0004" index="3" status="LL" value="0" reducedCost="0.21349999999999994"/>
  <variable name="C0005" index="4" status="LL" value="0" reducedCost="0.22300000000000003"/>
  <variable name="C0006" index="5" status="LL" value="0" reducedCost="0.28599999999999998"/>
  <variable name="C0007" index="6" status="LL" value="0" reducedCost="0.1205"/>
  <variable name="C0008" index="7" status="BS" value="1" reducedCost="0"/>
  <variable name="C0009" index="8" status="BS" value="0" reducedCost="0"/>
  <variable name="C0010" index="9" status="LL" value="0" reducedCost="0.17449999999999996"/>
  <variable name="C0011" index="10" status="UL" value="1" reducedCost="-0.11500000000000005"/>
  <variable name="C0012" index="11" status="LL" value="0" reducedCost="0.72299999999999998"/>
  <variable name="C0013" index="12" status="LL" value="0" reducedCost="0.35449999999999993"/>
  <variable name="C0014" index="13" status="LL" value="0" reducedCost="0.30349999999999999"/>
  <variable name="C0015" index="14" status="LL" value="0" reducedCost="0.18550000000000003"/>
  <variable name="C0016" index="15" status="BS" value="1" reducedCost="0"/>
  <variable name="C0017" index="16" status="UL" value="1" reducedCost="-0.26999999999999996"/>
  <variable name="C0018" index="17" status="LL" value="0" reducedCost="0.30750000000000005"/>
  <variable name="C0019" index="18" status="LL" value="0" reducedCost="0.21100000000000008"/>
  <variable name="C0020" index="19" status="BS" value="0" reducedCost="0"/>
  <variable name="C0021" index="20" status="LL" value="0" reducedCost="0.38149999999999995"/>
  <variable name="C0022" index="21" status="LL" value="0" reducedCost="0.021000000000000019"/>
  <variable name="C0023" index="22" status="LL" value="0" reducedCost="1.046"/>
  <variable name="C0024" index="23" status="LL" value="0" reducedCost="0.84399999999999997"/>
  <variable name="C0025" index="24" status="UL" value="1" reducedCost="-0.19699999999999998"/>
  <variable name="C0026" index="25" status="LL" value="0" reducedCost="0.078999999999999987"/>
  <variable name="C0027" index="26" status="LL" value="0" reducedCost="0.42250000000000004"/>
  <variable name="C0028" index="27" status="LL" value="0" reducedCost="0.04450000000000004"/>
  <variable name="C0029" index="28" status="LL" value="0" reducedCost="0.22099999999999997"/>
  <variable name="C0030" index="29" status="LL" value="0" reducedCost="0.3105"/>
  <variable name="C0031" index="30" status="LL" value="0" reducedCost="0.46549999999999997"/>
  <variable name="C0032" index="31" status="BS" value="1" reducedCost="0"/>
  <variable name="C0033" index="32" status="LL" value="0" reducedCost="0.45649999999999996"/>
  <variable name="C0034" index="33" status="LL" value="0" reducedCost="0.81100000000000005"/>
  <variable name="C0035" index="34" status="LL" value="0" reducedCost="0.61799999999999999"/>
  <variable name="C0036" index="35" status="LL" value="0" reducedCost="0.255"/>
  <variable name="C0037" index="36" status="BS" value="1" reducedCost="0"/>
  <variable name="C0038" index="37" status="LL" value="0" reducedCost="0.34950000000000009"/>
  <variable name="C0039" index="38" status="LL" value="0" reducedCost="0.055500000000000049"/>
  <variable name="C0040" index="39" status="LL" value="0" reducedCost="0.158"/>
  <variable name="C0041" index="40" status="LL" value="0" reducedCost="0.23750000000000004"/>
  <variable name="C0042" index="41" status="LL" value="0" reducedCost="0.38750000000000001"/>
  <variable name="C0043" index="42" status="BS" value="0" reducedCost="0"/>
  <variable name="C0044" index="43" status="LL" value="0" reducedCost="0.3765"/>
  <variable name="C0045" index="44" status="LL" value="0" reducedCost="0.58799999999999997"/>
  <variable name="C0046" index="45" status="LL" value="0" reducedCost="0.45500000000000002"/>
  <variable name="C0047" index="46" status="LL" value="0" reducedCost="0.498"/>
  <variable name="C0048" index="47" status="LL" value="0" reducedCost="0.24399999999999999"/>
  <variable name="C0049" index="48" status="LL" value="0" reducedCost="0.18150000000000002"/>
  <variable name="C0050" index="49" status="LL" value="0" reducedCost="0.042500000000000038"/>
  <variable name="C0051" index="50" status="BS" value="0.5" reducedCost="0"/>
  <variable name="C0052" index="51" status="LL" value="0" reducedCost="0.04550000000000004"/>
  <variable name="C0053" index="52" status="LL" value="0" reducedCost="0.19850000000000007"/>
  <variable name="C0054" index="53" status="BS" value="0.5" reducedCost="0"/>
  <variable name="C0055" index="54" status="LL" value="0" reducedCost="0.18049999999999994"/>
  <variable name="C0056" index="55" status="LL" value="0" reducedCost="0.54700000000000004"/>
  <variable name="C0057" index="56" status="LL" value="0" reducedCost="0.186"/>
  <variable name="C0058" index="57" status="LL" value="0" reducedCost="0.79100000000000004"/>
  <variable name="C0059" index="58" status="LL" value="0" reducedCost="0.54300000000000004"/>
  <variable name="C0060" index="59" status="LL" value="0" reducedCost="0.33000000000000002"/>
  <variable name="C0061" index="60" status="BS" value="0.5" reducedCost="0"/>
  <variable name="C0062" index="61" status="LL" value="0" reducedCost="0.26350000000000001"/>
  <variable name="C0063" index="62" status="LL" value="0" reducedCost="0.15000000000000002"/>
  <variable name="C0064" index="63" status="BS" value="0.5" reducedCost="0"/>
  <variable name="C0065" index="64" status="LL" value="0" reducedCost="0.35750000000000015"/>
  <variable name="C0066" index="65" status="BS" value="0" reducedCost="0"/>
  <variable name="C0067" index="66" status="LL" value="0" reducedCost="0.96999999999999997"/>
  <variable name="C0068" index="67" status="LL" value="0" reducedCost="0.27600000000000002"/>
  <variable name="C0069" index="68" status="LL" value="0" reducedCost="0.77300000000000002"/>
  <variable name="C0070" index="69" status="LL" value="0" reducedCost="0.60899999999999999"/>
  <variable name="C0071" index="70" status="LL" value="0" reducedCost="0.55100000000000005"/>
  <variable name="C0072" index="71" status="LL" value="0" reducedCost="0.42499999999999999"/>
  <variable name="C0073" index="72" status="LL" value="0" reducedCost="0.21550000000000008"/>
  <variable name="C0074" index="73" status="LL" value="0" reducedCost="0.16600000000000009"/>
  <variable name="C0075" index="74" status="BS" value="0.5" reducedCost="0"/>
  <variable name="C0076" index="75" status="LL" value="0" reducedCost="0.23350000000000007"/>
  <variable name="C0077" index="76" status="LL" value="0" reducedCost="0.050000000000000044"/>
  <variable name="C0078" index="77" status="LL" value="0" reducedCost="0.45200000000000001"/>
  <variable name="C0079" index="78" status="LL" value="0" reducedCost="0.53400000000000003"/>
  <variable name="C0080" index="79" status="LL" value="0" reducedCost="0.59699999999999998"/>
  <variable name="C0081" index="80" status="LL" value="0" reducedCost="0.35899999999999999"/>
  <variable name="C0082" index="81" status="LL" value="0" reducedCost="0.156"/>
  <variable name="C0083" index="82" status="LL" value="0" reducedCost="0.36899999999999999"/>
  <variable name="C0084" index="83" status="LL" value="0" reducedCost="0.68100000000000005"/>
  <variable name="C0085" index="84" status="UL" value="1" reducedCost="-0.008499999999999952"/>
  <variable name="C0086" index="85" status="LL" value="0" reducedCost="0.22250000000000003"/>
  <variable name="C0087" index="86" status="BS" value="0.5" reducedCost="0"/>
  <variable name="C0088" index="87" status="LL" value="0" reducedCost="0.17549999999999999"/>
  <variable name="C0089" index="88" status="LL" value="0" reducedCost="0.36099999999999999"/>
  <variable name="C0090" index="89" status="LL" value="0" reducedCost="0.46700000000000003"/>
  <variable name="C0091" index="90" status="LL" value="0" reducedCost="0.71599999999999997"/>
  <variable name="C0092" index="91" status="LL" value="0" reducedCost="0.46800000000000003"/>
  <variable name="C0093" index="92" status="LL" value="0" reducedCost="0.23100000000000001"/>
  <variable name="C0094" index="93" status="LL" value="0" reducedCost="0.28499999999999998"/>
  <variable name="C0095" index="94" status="LL" value="0" reducedCost="0.66100000000000003"/>
  <variable name="C0096" index="95" status="LL" value="0" reducedCost="0.13400000000000001"/>
  <variable name="C0097" index="96" status="LL" value="0" reducedCost="0.069000000000000061"/>
  <variable name="C0098" index="97" status="LL" value="0" reducedCost="0.10250000000000001"/>
  <variable name="C0099" index="98" status="LL" value="0" reducedCost="0.014000000000000012"/>
  <variable name="C0100" index="99" status="LL" value="0" reducedCost="0.44400000000000001"/>
  <variable name="C0101" index="100" status="LL" value="0" reducedCost="0.30599999999999999"/>
  <variable name="C0102" index="101" status="LL" value="0" reducedCost="0.95399999999999996"/>
  <variable name="C0103" index="102" status="LL" value="0" reducedCost="0.70099999999999996"/>
  <variable name="C0104" index="103" status="LL" value="0" reducedCost="0.46700000000000003"/>
  <variable name="C0105" index="104" status="LL" value="0" reducedCost="0.185"/>
  <variable name="C0106" index="105" status="LL" value="0" reducedCost="0.57799999999999996"/>
  <variable name="C0107" index="106" status="LL" value="0" reducedCost="0.44800000000000001"/>
  <variable name="C0108" index="107" status="LL" value="0" reducedCost="0.32400000000000001"/>
  <variable name="C0109" index="108" status="LL" value="0" reducedCost="0.33450000000000002"/>
  <variable name="C0110" index="109" status="UL" value="1" reducedCost="-0.24700000000000005"/>
  <variable name="C0111" index="110" status="LL" value="0" reducedCost="0.60499999999999998"/>
  <variable name="C0112" index="111" status="LL" value="0" reducedCost="0.70699999999999996"/>
  <variable name="C0113" index="112" status="LL" value="0" reducedCost="0.46300000000000002"/>
  <variable name="C0114" index="113" status="LL" value="0" reducedCost="0.28799999999999998"/>
  <variable name="C0115" index="114" status="LL" value="0" reducedCost="0.255"/>
  <variable name="C0116" index="115" status="LL" value="0" reducedCost="0.56200000000000006"/>
  <variable name="C0117" index="116" status="LL" value="0" reducedCost="0.79800000000000004"/>
  <variable name="C0118" index="117" status="LL" value="0" reducedCost="0.21199999999999999"/>
  <variable name="C0119" index="118" status="LL" value="0" reducedCost="0.34399999999999997"/>
  <variable name="C0120" index="119" status="LL" value="0" reducedCost="0.65900000000000003"/>
  <variable name="C0121" index="120" status="LL" value="0" reducedCost="0.28750000000000003"/>
  <variable name="C0122" index="121" status="LL" value="0" reducedCost="0.35899999999999999"/>
  <variable name="C0123" index="122" status="LL" value="0" reducedCost="0.39000000000000001"/>
  <variable name="C0124" index="123" status="LL" value="0" reducedCost="0.97499999999999998"/>
  <variable name="C0125" index="124" status="LL" value="0" reducedCost="0.71999999999999997"/>
  <variable name="C0126" index="125" status="LL" value="0" reducedCost="0.47899999999999998"/>
  <variable name="C0127" index="126" status="LL" value="0" reducedCost="0.248"/>
  <variable name="C0128" index="127" status="LL" value="0" reducedCost="0.65800000000000003"/>
  <variable name="C0129" index="128" status="LL" value="0" reducedCost="0.43099999999999999"/>
  <variable name="C0130" index="129" status="LL" value="0" reducedCost="0.29899999999999999"/>
  <variable name="C0131" index="130" status="LL" value="0" reducedCost="0.087999999999999995"/>
  <variable name="C0132" index="131" status="LL" value="0" reducedCost="0.64200000000000002"/>
 </variables>
 <objectiveValues>
  <objective index="0" name="R0015" value="3.2714999999999996"/>
 </objectiveValues>
</CPLEXSolution>
